Traveling Salesman Problem/TSP_generados/Aleatorio1620390923_9.tsp
NAME: Aleatorio1620390923_9.tsp
COMMENT: Randomly generated scenario
TYPE: TSP
DIMENSION: 9
EDGE_WEIGHT_TYPE: ATT
NODE_COORD_SECTION
1 37.22 25.86
2 6.27 49.54
3 4.9 33.59
4 23.03 8.37
5 5.16 18.04
6 35.07 19.44
7 10.34 39.8
8 11.29 45.48
9 31.1 21.63
