Traveling Salesman Problem/TSP_generados/Aleatorio1620390923_9.opt.tour
NAME: Aleatorio1620390923_9.opt.tour
COMMENT: Optimal solution for Aleatorio1620390923_9 (120.48238597746045)
TYPE: TOUR
DIMENSION: 9
TOUR_SECTION
1 6 9 4 5 3 7 2 8
-1
EOF
